(set-logic QF_S)
(declare-fun var_0xINPUT_102793 () String)
(assert (and (not (= var_0xINPUT_102793 "A9jaaDKZbG")) (= (len var_0xINPUT_102793) 0) (not (= var_0xINPUT_102793 "Example:")) (not (= var_0xINPUT_102793 "A9jaaDKZbG"))))
(check-sat var_0xINPUT_102793)